108 10000 42121 
5 1
14 1
16 1
17 1
18 1
19 1
20 1
21 1
25 1
27 1
32 1
35 1
38 1
41 1
44 1
46 1
50 1
53 1
57 1
73 1
74 1
80 1
83 1
85 1
88 1
93 1
94 1
103 1
108 1
116 1
144 1
145 1
147 1
150 1
152 1
157 1
158 1
160 1
161 1
163 1
169 1
171 1
173 1
176 1
188 1
191 1
193 1
208 1
209 1
210 1
213 1
215 1
216 1
217 1
223 1
228 1
229 1
242 1
247 1
251 1
254 1
259 1
264 1
266 1
269 1
270 1
273 1
279 1
282 1
283 1
284 1
286 1
289 1
294 1
297 1
298 1
305 1
306 1
310 1
324 1
328 1
332 1
340 1
349 1
358 1
360 1
363 1
374 1
375 1
398 1
411 1
417 1
424 1
430 1
431 1
437 1
444 1
446 1
449 1
455 1
457 1
460 1
472 1
473 1
475 1
480 1
483 1
496 1
